3916 [[0, 39, 19, 20, 16, 22, 40, 28, 6, 10, 5, 11, 44, 0], [0, 12, 38, 31, 43, 25, 41, 37, 0], [0, 7, 34, 1, 18, 24, 2, 4, 17, 35, 32, 29, 47, 15, 46, 0], [0, 45, 21, 23, 26, 14, 33, 42, 27, 3, 8, 13, 9, 36, 30, 0]]

